1 1 2 0
1 3 0
1 -4 5 0
1 -6 -5 0
1 -7 0
1 8 -3 0
1 -2 -8 0
1 -9 -2 0
1 -9 -5 0
1 -6 8 0
1 10 4 0
1 -1 -4 0
1 -11 1 0
1 -3 -9 0
1 4 12 0
1 2 -1 0
1 -13 -14 0
1 -2 15 0
1 8 -15 0
1 -8 15 0
1 5 11 0
1 -4 15 0
1 -1 -4 5 0
1 8 9 0
1 -1 -8 0
1 -16 0
1 -17 7 0
1 -4 -1 0
1 -8 -2 0
1 5 -2 0
1 -9 -16 0
1 9 11 0
1 7 -2 0
1 -1 -7 0
1 -8 5 0
1 -4 0
1 5 -3 0
1 18 -15 0
1 1 4 0
1 11 1 0
1 -4 -6 0
1 -2 8 0
1 2 5 0
1 -1 2 0
1 10 0
1 -14 -2 0
1 8 19 0
1 5 -7 0
1 -3 -15 0
1 -13 9 0
1 -1 -16 0
1 -1 4 0
1 -14 9 0
1 -5 18 0
1 12 -4 0
1 5 -9 0
1 -5 -12 0
1 -12 5 0
1 4 11 0
1 13 -1 0
1 11 20 0
1 12 11 0
1 -20 7 0
1 -11 -14 0
1 -19 0
1 11 -8 0
1 4 -8 0
1 -20 0
1 -17 5 0
1 2 -4 0
1 18 -11 0
1 1 -13 0
1 -7 -9 0
1 -2 1 0
1 1 -15 0
1 -9 13 0
1 18 0
1 -12 -15 0
1 -7 -1 0
1 -4 -5 0
1 20 -5 0
1 2 -13 0
1 -16 -9 0
1 -15 -11 0
1 -13 0
1 -5 11 0
1 9 -5 0
1 -4 -14 0
1 11 2 0
1 -2 11 0
1 -15 -5 0
1 14 -15 0
1 -19 4 0
1 -11 -8 0
1 1 18 0
1 -9 -17 0
1 -4 11 0
1 15 -10 0
1 -1 -9 0
1 17 0
1 1 -7 0
1 -17 9 0
1 -1 3 0
1 -1 17 0
1 -2 -9 0
1 -17 -4 0
1 -11 15 0
1 9 0
1 2 -15 0
1 -20 -11 0
1 1 -5 0
1 7 -5 0
1 2 11 0
1 15 2 0
1 17 -12 0
1 -1 -2 0
1 -1 8 0
1 5 2 0
1 -15 -4 0
1 -1 15 0
1 -3 -5 0
1 -13 1 0
1 11 0
1 1 9 0
1 -16 -15 0
1 4 -2 0
1 -15 0
1 14 0
1 8 0
1 7 -8 0
1 -5 4 0
1 -9 -6 0
1 -3 -11 0
1 9 5 0
1 -4 8 0
1 8 -9 0
1 -1 -5 0
1 8 17 0
1 -5 -8 0
1 5 -15 0
1 -17 -8 0
1 -1 5 0
1 20 9 0
1 -12 2 0
1 12 0
1 14 12 0
1 -16 -13 0
1 8 -5 0
1 6 0
1 -4 -15 0
1 2 -6 0
1 -1 9 0
1 17 5 0
1 11 -12 0
1 1 0
1 -5 9 0
1 15 -4 0
1 5 -8 0
1 15 -18 0
1 -2 19 0
1 -5 13 0
1 -9 1 0
1 1 19 0
1 -16 -2 0
1 -15 -20 0
1 14 -10 0
1 1 -8 0
1 4 -6 0
1 2 -5 0
1 2 -8 0
1 -19 15 0
1 -1 14 0
1 -8 2 0
1 9 4 0
1 8 -19 0
1 16 2 0
1 -5 -1 0
1 -12 -6 0
1 -8 -4 0
1 15 -8 0
1 -3 15 0
1 -5 -10 0
1 5 -14 0
1 -8 1 0
1 20 2 0
1 -5 -11 0
h 9 -21 0
1 22 0
1 23 0
1 24 -25 0
1 -26 0
1 27 24 0
1 -28 -26 0
1 28 -23 0
1 29 26 0
1 27 0
1 28 0
1 -26 -24 0
1 25 -26 0
1 -29 -28 0
1 30 0
1 25 29 0
1 -31 0
1 32 0
1 33 0
1 -24 0
1 25 -28 0
1 27 28 0
1 -29 4 0
1 29 24 0
1 -33 -24 0
1 33 28 0
1 -34 -35 0
1 -24 -4 0
1 -28 -25 0
1 36 0
1 34 0
1 -13 -27 0
1 -24 -27 0
1 2 0
1 -26 -32 0
1 25 -36 0
1 27 -28 0
1 -28 24 0
1 4 -24 0
1 27 -29 0
1 -30 -27 0
1 -27 -25 0
1 27 -37 24 0
1 28 18 0
1 26 -25 0
1 26 28 0
1 5 0
1 -26 -27 0
1 25 24 0
1 -27 -28 0
1 24 30 0
1 -5 31 0
1 24 -22 0
1 25 -32 0
1 -7 25 0
1 29 -26 0
504333535 25 0
1 -36 24 0
1 -25 -24 0
1 20 29 0
1 -25 24 0
1 -27 4 0
1 -29 0
1 35 0
1 29 -2 0
1 -21 0
h 38 -26 0
1 -38 0
h 39 21 0
1040129732 -39 0
h 40 -41 0
1 -40 0
h 42 -9 0
2095703040 -42 0
h 37 27 0
h -37 -27 0
h 43 1 0
1 -43 0
h 44 -27 0
671103346 -44 0
